NAME 
OBJSENSE MAX
ROWS
 N  OBJ
 L  packing[0]
 L  packing[1]
 L  packing[2]
 L  packing[3]
 L  packing[4]
 L  packing[5]
 L  packing[6]
 L  packing[7]
 L  packing[8]
 L  packing[9]
 L  packing[10]
 L  packing[11]
 L  packing[12]
 L  packing[13]
 L  packing[14]
 L  packing[15]
 L  packing[16]
 L  packing[17]
 L  packing[18]
 L  packing[19]
 L  packing[20]
 L  packing[21]
 L  packing[22]
 L  packing[23]
 L  packing[24]
 L  packing[25]
 L  packing[26]
 L  packing[27]
 L  packing[28]
 L  packing[29]
 L  packing[30]
 L  packing[31]
 L  packing[32]
 L  packing[33]
 L  packing[34]
 L  packing[35]
 L  packing[36]
 L  packing[37]
 L  packing[38]
 L  packing[39]
 L  packing[40]
 L  packing[41]
 L  packing[42]
 L  packing[43]
 L  packing[44]
 L  packing[45]
 L  packing[46]
 L  packing[47]
 L  packing[48]
 L  packing[49]
 L  R53     
COLUMNS
    MARKER    'MARKER'                 'INTORG'
    x[1]      OBJ       101
    x[1]      packing[2]  90
    x[1]      packing[3]  65
    x[1]      packing[5]  192
    x[1]      packing[6]  122
    x[1]      packing[8]  188
    x[1]      packing[11]  6
    x[1]      packing[12]  11
    x[1]      packing[13]  112
    x[1]      packing[14]  198
    x[1]      packing[15]  159
    x[1]      packing[17]  149
    x[1]      packing[18]  184
    x[1]      packing[20]  108
    x[1]      packing[21]  98
    x[1]      packing[22]  58
    x[1]      packing[23]  194
    x[1]      packing[25]  137
    x[1]      packing[26]  9
    x[1]      packing[28]  164
    x[1]      packing[29]  186
    x[1]      packing[30]  4
    x[1]      packing[32]  58
    x[1]      packing[33]  120
    x[1]      packing[34]  14
    x[1]      packing[35]  135
    x[1]      packing[36]  58
    x[1]      packing[37]  175
    x[1]      packing[38]  105
    x[1]      packing[39]  104
    x[1]      packing[40]  144
    x[1]      packing[41]  54
    x[1]      packing[42]  177
    x[1]      packing[43]  171
    x[1]      packing[44]  199
    x[1]      packing[45]  27
    x[1]      packing[46]  4
    x[1]      packing[48]  197
    x[1]      packing[49]  9
    x[1]      R53       1
    x[2]      OBJ       94
    x[2]      packing[1]  114
    x[2]      packing[2]  168
    x[2]      packing[3]  198
    x[2]      packing[5]  185
    x[2]      packing[6]  120
    x[2]      packing[7]  113
    x[2]      packing[8]  73
    x[2]      packing[9]  143
    x[2]      packing[10]  128
    x[2]      packing[12]  118
    x[2]      packing[14]  142
    x[2]      packing[15]  101
    x[2]      packing[17]  78
    x[2]      packing[18]  163
    x[2]      packing[19]  181
    x[2]      packing[20]  191
    x[2]      packing[22]  103
    x[2]      packing[23]  122
    x[2]      packing[24]  130
    x[2]      packing[25]  60
    x[2]      packing[27]  36
    x[2]      packing[28]  60
    x[2]      packing[29]  90
    x[2]      packing[30]  138
    x[2]      packing[32]  54
    x[2]      packing[34]  183
    x[2]      packing[36]  9
    x[2]      packing[37]  162
    x[2]      packing[39]  71
    x[2]      packing[41]  5
    x[2]      packing[42]  162
    x[2]      packing[43]  113
    x[2]      packing[46]  189
    x[2]      packing[47]  156
    x[2]      packing[48]  128
    x[2]      packing[49]  44
    x[3]      OBJ       99
    x[3]      packing[0]  98
    x[3]      packing[1]  62
    x[3]      packing[3]  117
    x[3]      packing[4]  84
    x[3]      packing[5]  147
    x[3]      packing[7]  133
    x[3]      packing[8]  91
    x[3]      packing[9]  82
    x[3]      packing[10]  149
    x[3]      packing[11]  74
    x[3]      packing[12]  184
    x[3]      packing[13]  182
    x[3]      packing[15]  184
    x[3]      packing[17]  90
    x[3]      packing[18]  35
    x[3]      packing[20]  152
    x[3]      packing[21]  129
    x[3]      packing[22]  40
    x[3]      packing[23]  181
    x[3]      packing[25]  109
    x[3]      packing[26]  43
    x[3]      packing[27]  179
    x[3]      packing[28]  11
    x[3]      packing[29]  22
    x[3]      packing[30]  16
    x[3]      packing[31]  181
    x[3]      packing[32]  156
    x[3]      packing[34]  193
    x[3]      packing[35]  192
    x[3]      packing[36]  139
    x[3]      packing[37]  52
    x[3]      packing[38]  80
    x[3]      packing[39]  80
    x[3]      packing[41]  43
    x[3]      packing[43]  36
    x[3]      packing[44]  65
    x[3]      packing[45]  188
    x[3]      packing[48]  50
    x[3]      packing[49]  21
    x[4]      OBJ       58
    x[4]      packing[3]  134
    x[4]      packing[6]  16
    x[4]      packing[7]  28
    x[4]      packing[9]  143
    x[4]      packing[12]  130
    x[4]      packing[13]  71
    x[4]      packing[14]  179
    x[4]      packing[15]  171
    x[4]      packing[17]  76
    x[4]      packing[18]  178
    x[4]      packing[19]  166
    x[4]      packing[21]  129
    x[4]      packing[23]  186
    x[4]      packing[24]  112
    x[4]      packing[25]  166
    x[4]      packing[26]  137
    x[4]      packing[27]  19
    x[4]      packing[29]  124
    x[4]      packing[30]  179
    x[4]      packing[32]  12
    x[4]      packing[34]  76
    x[4]      packing[35]  155
    x[4]      packing[36]  115
    x[4]      packing[37]  77
    x[4]      packing[38]  75
    x[4]      packing[39]  174
    x[4]      packing[42]  3
    x[4]      packing[43]  179
    x[4]      packing[44]  2
    x[4]      packing[45]  139
    x[4]      packing[46]  16
    x[4]      packing[47]  189
    x[4]      packing[48]  137
    x[4]      packing[49]  83
    x[5]      OBJ       82
    x[5]      packing[1]  54
    x[5]      packing[2]  53
    x[5]      packing[3]  68
    x[5]      packing[5]  43
    x[5]      packing[6]  69
    x[5]      packing[7]  186
    x[5]      packing[8]  168
    x[5]      packing[9]  148
    x[5]      packing[10]  90
    x[5]      packing[12]  52
    x[5]      packing[13]  45
    x[5]      packing[14]  34
    x[5]      packing[15]  40
    x[5]      packing[16]  8
    x[5]      packing[18]  124
    x[5]      packing[19]  175
    x[5]      packing[20]  188
    x[5]      packing[21]  133
    x[5]      packing[22]  128
    x[5]      packing[23]  92
    x[5]      packing[24]  96
    x[5]      packing[27]  139
    x[5]      packing[28]  2
    x[5]      packing[29]  177
    x[5]      packing[30]  133
    x[5]      packing[32]  80
    x[5]      packing[33]  94
    x[5]      packing[34]  28
    x[5]      packing[36]  36
    x[5]      packing[37]  186
    x[5]      packing[39]  150
    x[5]      packing[40]  73
    x[5]      packing[43]  167
    x[5]      packing[44]  116
    x[5]      packing[47]  112
    x[5]      packing[48]  110
    x[5]      packing[49]  97
    x[6]      OBJ       180
    x[6]      packing[0]  178
    x[6]      packing[1]  76
    x[6]      packing[2]  131
    x[6]      packing[3]  82
    x[6]      packing[4]  33
    x[6]      packing[5]  80
    x[6]      packing[6]  137
    x[6]      packing[7]  39
    x[6]      packing[8]  2
    x[6]      packing[9]  47
    x[6]      packing[10]  145
    x[6]      packing[11]  54
    x[6]      packing[12]  150
    x[6]      packing[13]  99
    x[6]      packing[14]  10
    x[6]      packing[16]  48
    x[6]      packing[17]  29
    x[6]      packing[18]  56
    x[6]      packing[19]  175
    x[6]      packing[20]  168
    x[6]      packing[21]  182
    x[6]      packing[22]  110
    x[6]      packing[24]  13
    x[6]      packing[25]  142
    x[6]      packing[26]  59
    x[6]      packing[27]  87
    x[6]      packing[29]  100
    x[6]      packing[30]  162
    x[6]      packing[31]  191
    x[6]      packing[32]  129
    x[6]      packing[35]  32
    x[6]      packing[36]  118
    x[6]      packing[37]  38
    x[6]      packing[39]  93
    x[6]      packing[40]  143
    x[6]      packing[41]  46
    x[6]      packing[44]  83
    x[6]      packing[45]  124
    x[6]      packing[46]  174
    x[6]      packing[47]  195
    x[6]      packing[48]  138
    x[6]      packing[49]  122
    x[7]      OBJ       66
    x[7]      packing[0]  95
    x[7]      packing[2]  77
    x[7]      packing[4]  167
    x[7]      packing[5]  126
    x[7]      packing[9]  137
    x[7]      packing[10]  39
    x[7]      packing[11]  8
    x[7]      packing[13]  185
    x[7]      packing[15]  135
    x[7]      packing[16]  78
    x[7]      packing[17]  57
    x[7]      packing[18]  193
    x[7]      packing[19]  153
    x[7]      packing[21]  155
    x[7]      packing[22]  149
    x[7]      packing[24]  78
    x[7]      packing[25]  2
    x[7]      packing[26]  112
    x[7]      packing[27]  198
    x[7]      packing[29]  89
    x[7]      packing[31]  151
    x[7]      packing[32]  61
    x[7]      packing[33]  182
    x[7]      packing[35]  145
    x[7]      packing[36]  172
    x[7]      packing[39]  149
    x[7]      packing[40]  188
    x[7]      packing[41]  56
    x[7]      packing[42]  95
    x[7]      packing[43]  94
    x[7]      packing[44]  142
    x[7]      packing[46]  135
    x[7]      packing[47]  163
    x[7]      packing[48]  165
    x[7]      packing[49]  108
    x[8]      OBJ       92
    x[8]      packing[1]  106
    x[8]      packing[3]  13
    x[8]      packing[5]  34
    x[8]      packing[6]  132
    x[8]      packing[8]  143
    x[8]      packing[9]  164
    x[8]      packing[11]  97
    x[8]      packing[12]  73
    x[8]      packing[13]  171
    x[8]      packing[14]  104
    x[8]      packing[15]  161
    x[8]      packing[16]  148
    x[8]      packing[17]  144
    x[8]      packing[18]  80
    x[8]      packing[19]  21
    x[8]      packing[21]  169
    x[8]      packing[22]  36
    x[8]      packing[23]  102
    x[8]      packing[24]  161
    x[8]      packing[26]  168
    x[8]      packing[27]  140
    x[8]      packing[32]  87
    x[8]      packing[33]  121
    x[8]      packing[34]  94
    x[8]      packing[36]  153
    x[8]      packing[37]  151
    x[8]      packing[39]  146
    x[8]      packing[42]  20
    x[8]      packing[43]  45
    x[8]      packing[44]  131
    x[8]      packing[45]  99
    x[8]      packing[46]  53
    x[8]      packing[47]  145
    x[8]      packing[48]  145
    x[8]      packing[49]  190
    x[9]      OBJ       17
    x[9]      packing[0]  78
    x[9]      packing[1]  12
    x[9]      packing[2]  41
    x[9]      packing[3]  174
    x[9]      packing[4]  18
    x[9]      packing[5]  198
    x[9]      packing[6]  143
    x[9]      packing[7]  10
    x[9]      packing[8]  102
    x[9]      packing[9]  92
    x[9]      packing[10]  140
    x[9]      packing[11]  121
    x[9]      packing[12]  20
    x[9]      packing[16]  91
    x[9]      packing[17]  132
    x[9]      packing[20]  98
    x[9]      packing[21]  76
    x[9]      packing[22]  95
    x[9]      packing[25]  136
    x[9]      packing[27]  192
    x[9]      packing[28]  131
    x[9]      packing[29]  102
    x[9]      packing[30]  92
    x[9]      packing[31]  39
    x[9]      packing[33]  174
    x[9]      packing[35]  54
    x[9]      packing[36]  38
    x[9]      packing[37]  111
    x[9]      packing[39]  84
    x[9]      packing[41]  165
    x[9]      packing[42]  122
    x[9]      packing[43]  66
    x[9]      packing[45]  83
    x[9]      packing[46]  189
    x[9]      packing[47]  8
    x[10]     OBJ       57
    x[10]     packing[0]  49
    x[10]     packing[1]  3
    x[10]     packing[2]  195
    x[10]     packing[3]  195
    x[10]     packing[4]  188
    x[10]     packing[5]  1
    x[10]     packing[8]  100
    x[10]     packing[11]  196
    x[10]     packing[12]  171
    x[10]     packing[13]  79
    x[10]     packing[14]  193
    x[10]     packing[16]  30
    x[10]     packing[17]  154
    x[10]     packing[18]  102
    x[10]     packing[19]  49
    x[10]     packing[20]  1
    x[10]     packing[21]  81
    x[10]     packing[22]  112
    x[10]     packing[23]  160
    x[10]     packing[25]  87
    x[10]     packing[26]  23
    x[10]     packing[27]  163
    x[10]     packing[28]  73
    x[10]     packing[29]  98
    x[10]     packing[30]  69
    x[10]     packing[32]  162
    x[10]     packing[33]  46
    x[10]     packing[34]  145
    x[10]     packing[37]  189
    x[10]     packing[39]  108
    x[10]     packing[40]  39
    x[10]     packing[43]  194
    x[10]     packing[44]  76
    x[10]     packing[45]  117
    x[10]     packing[46]  28
    x[10]     packing[48]  198
    x[10]     packing[49]  2
    x[11]     OBJ       101
    x[11]     packing[0]  30
    x[11]     packing[2]  177
    x[11]     packing[3]  77
    x[11]     packing[5]  191
    x[11]     packing[6]  162
    x[11]     packing[7]  133
    x[11]     packing[9]  194
    x[11]     packing[12]  112
    x[11]     packing[13]  193
    x[11]     packing[14]  139
    x[11]     packing[15]  137
    x[11]     packing[16]  192
    x[11]     packing[17]  1
    x[11]     packing[18]  69
    x[11]     packing[21]  37
    x[11]     packing[23]  167
    x[11]     packing[24]  107
    x[11]     packing[30]  172
    x[11]     packing[31]  71
    x[11]     packing[33]  124
    x[11]     packing[37]  97
    x[11]     packing[40]  61
    x[11]     packing[41]  145
    x[11]     packing[42]  174
    x[11]     packing[43]  4
    x[11]     packing[44]  192
    x[11]     packing[45]  182
    x[11]     packing[46]  187
    x[11]     packing[47]  166
    x[11]     packing[48]  124
    x[11]     packing[49]  19
    x[12]     OBJ       143
    x[12]     packing[2]  161
    x[12]     packing[4]  34
    x[12]     packing[5]  96
    x[12]     packing[6]  102
    x[12]     packing[7]  80
    x[12]     packing[8]  27
    x[12]     packing[10]  90
    x[12]     packing[11]  109
    x[12]     packing[12]  189
    x[12]     packing[13]  43
    x[12]     packing[15]  60
    x[12]     packing[17]  158
    x[12]     packing[18]  17
    x[12]     packing[19]  28
    x[12]     packing[21]  72
    x[12]     packing[22]  128
    x[12]     packing[24]  17
    x[12]     packing[25]  104
    x[12]     packing[26]  73
    x[12]     packing[30]  122
    x[12]     packing[32]  96
    x[12]     packing[35]  33
    x[12]     packing[36]  124
    x[12]     packing[37]  21
    x[12]     packing[38]  83
    x[12]     packing[39]  161
    x[12]     packing[41]  196
    x[12]     packing[42]  20
    x[12]     packing[44]  74
    x[12]     packing[47]  22
    x[12]     packing[48]  104
    x[12]     packing[49]  192
    x[12]     R53       1
    x[13]     OBJ       121
    x[13]     packing[0]  78
    x[13]     packing[1]  86
    x[13]     packing[2]  160
    x[13]     packing[3]  12
    x[13]     packing[4]  112
    x[13]     packing[5]  189
    x[13]     packing[6]  173
    x[13]     packing[7]  12
    x[13]     packing[8]  160
    x[13]     packing[9]  92
    x[13]     packing[10]  194
    x[13]     packing[11]  15
    x[13]     packing[13]  137
    x[13]     packing[16]  145
    x[13]     packing[18]  121
    x[13]     packing[19]  43
    x[13]     packing[20]  86
    x[13]     packing[21]  136
    x[13]     packing[22]  138
    x[13]     packing[23]  135
    x[13]     packing[25]  78
    x[13]     packing[27]  199
    x[13]     packing[28]  55
    x[13]     packing[29]  181
    x[13]     packing[30]  17
    x[13]     packing[31]  96
    x[13]     packing[32]  188
    x[13]     packing[33]  47
    x[13]     packing[34]  29
    x[13]     packing[35]  165
    x[13]     packing[36]  142
    x[13]     packing[37]  93
    x[13]     packing[39]  80
    x[13]     packing[40]  95
    x[13]     packing[41]  157
    x[13]     packing[43]  88
    x[13]     packing[44]  56
    x[13]     packing[45]  187
    x[13]     packing[48]  27
    x[13]     packing[49]  128
    x[14]     OBJ       109
    x[14]     packing[1]  94
    x[14]     packing[2]  27
    x[14]     packing[3]  70
    x[14]     packing[4]  170
    x[14]     packing[5]  30
    x[14]     packing[9]  169
    x[14]     packing[12]  181
    x[14]     packing[14]  82
    x[14]     packing[18]  99
    x[14]     packing[20]  80
    x[14]     packing[21]  21
    x[14]     packing[22]  19
    x[14]     packing[24]  88
    x[14]     packing[25]  118
    x[14]     packing[26]  66
    x[14]     packing[27]  143
    x[14]     packing[28]  76
    x[14]     packing[29]  156
    x[14]     packing[30]  185
    x[14]     packing[31]  162
    x[14]     packing[32]  184
    x[14]     packing[33]  141
    x[14]     packing[34]  11
    x[14]     packing[35]  112
    x[14]     packing[36]  98
    x[14]     packing[37]  66
    x[14]     packing[38]  183
    x[14]     packing[40]  160
    x[14]     packing[41]  14
    x[14]     packing[43]  74
    x[14]     packing[45]  113
    x[14]     packing[46]  133
    x[14]     packing[47]  139
    x[14]     packing[48]  174
    x[14]     packing[49]  103
    x[14]     R53       1
    x[15]     OBJ       169
    x[15]     packing[0]  136
    x[15]     packing[3]  157
    x[15]     packing[4]  174
    x[15]     packing[5]  22
    x[15]     packing[6]  23
    x[15]     packing[7]  114
    x[15]     packing[8]  145
    x[15]     packing[9]  67
    x[15]     packing[10]  48
    x[15]     packing[11]  197
    x[15]     packing[14]  6
    x[15]     packing[15]  11
    x[15]     packing[16]  170
    x[15]     packing[18]  175
    x[15]     packing[19]  61
    x[15]     packing[21]  45
    x[15]     packing[23]  165
    x[15]     packing[24]  178
    x[15]     packing[26]  104
    x[15]     packing[27]  137
    x[15]     packing[28]  82
    x[15]     packing[29]  130
    x[15]     packing[30]  31
    x[15]     packing[31]  171
    x[15]     packing[32]  107
    x[15]     packing[33]  169
    x[15]     packing[34]  102
    x[15]     packing[35]  142
    x[15]     packing[36]  102
    x[15]     packing[37]  38
    x[15]     packing[39]  168
    x[15]     packing[40]  79
    x[15]     packing[42]  45
    x[15]     packing[44]  20
    x[15]     packing[45]  167
    x[15]     packing[46]  189
    x[15]     packing[49]  87
    x[16]     OBJ       129
    x[16]     packing[0]  107
    x[16]     packing[2]  176
    x[16]     packing[3]  12
    x[16]     packing[4]  163
    x[16]     packing[5]  103
    x[16]     packing[6]  160
    x[16]     packing[7]  43
    x[16]     packing[8]  198
    x[16]     packing[9]  144
    x[16]     packing[10]  70
    x[16]     packing[11]  33
    x[16]     packing[12]  137
    x[16]     packing[13]  52
    x[16]     packing[19]  62
    x[16]     packing[20]  95
    x[16]     packing[21]  59
    x[16]     packing[22]  123
    x[16]     packing[24]  14
    x[16]     packing[26]  69
    x[16]     packing[27]  135
    x[16]     packing[28]  2
    x[16]     packing[29]  49
    x[16]     packing[30]  25
    x[16]     packing[31]  116
    x[16]     packing[32]  177
    x[16]     packing[33]  124
    x[16]     packing[34]  39
    x[16]     packing[37]  146
    x[16]     packing[38]  86
    x[16]     packing[39]  179
    x[16]     packing[41]  151
    x[16]     packing[42]  176
    x[16]     packing[43]  91
    x[16]     packing[44]  6
    x[16]     packing[45]  173
    x[16]     packing[46]  6
    x[16]     packing[47]  26
    x[16]     packing[48]  123
    x[16]     packing[49]  28
    x[17]     OBJ       40
    x[17]     packing[1]  6
    x[17]     packing[2]  44
    x[17]     packing[3]  135
    x[17]     packing[4]  189
    x[17]     packing[5]  120
    x[17]     packing[6]  52
    x[17]     packing[8]  150
    x[17]     packing[13]  193
    x[17]     packing[14]  12
    x[17]     packing[15]  130
    x[17]     packing[16]  190
    x[17]     packing[17]  70
    x[17]     packing[18]  10
    x[17]     packing[19]  125
    x[17]     packing[21]  152
    x[17]     packing[22]  151
    x[17]     packing[23]  118
    x[17]     packing[25]  81
    x[17]     packing[26]  51
    x[17]     packing[28]  149
    x[17]     packing[29]  60
    x[17]     packing[30]  159
    x[17]     packing[31]  58
    x[17]     packing[32]  173
    x[17]     packing[34]  41
    x[17]     packing[35]  53
    x[17]     packing[36]  139
    x[17]     packing[37]  118
    x[17]     packing[41]  117
    x[17]     packing[42]  136
    x[17]     packing[46]  24
    x[17]     packing[47]  133
    x[17]     packing[48]  50
    x[18]     OBJ       38
    x[18]     packing[0]  17
    x[18]     packing[1]  59
    x[18]     packing[2]  106
    x[18]     packing[3]  176
    x[18]     packing[4]  190
    x[18]     packing[5]  185
    x[18]     packing[7]  164
    x[18]     packing[9]  42
    x[18]     packing[10]  190
    x[18]     packing[12]  193
    x[18]     packing[13]  185
    x[18]     packing[14]  102
    x[18]     packing[15]  110
    x[18]     packing[16]  142
    x[18]     packing[17]  160
    x[18]     packing[19]  47
    x[18]     packing[20]  117
    x[18]     packing[21]  60
    x[18]     packing[25]  38
    x[18]     packing[26]  49
    x[18]     packing[27]  11
    x[18]     packing[28]  132
    x[18]     packing[29]  117
    x[18]     packing[30]  21
    x[18]     packing[32]  89
    x[18]     packing[34]  122
    x[18]     packing[35]  183
    x[18]     packing[37]  197
    x[18]     packing[38]  112
    x[18]     packing[39]  87
    x[18]     packing[40]  161
    x[18]     packing[41]  46
    x[18]     packing[42]  25
    x[18]     packing[43]  24
    x[18]     packing[44]  10
    x[18]     packing[45]  70
    x[18]     packing[46]  134
    x[18]     packing[47]  199
    x[18]     packing[48]  118
    x[19]     OBJ       186
    x[19]     packing[0]  54
    x[19]     packing[1]  141
    x[19]     packing[5]  16
    x[19]     packing[6]  182
    x[19]     packing[8]  3
    x[19]     packing[9]  54
    x[19]     packing[10]  60
    x[19]     packing[11]  111
    x[19]     packing[13]  43
    x[19]     packing[14]  32
    x[19]     packing[15]  114
    x[19]     packing[16]  142
    x[19]     packing[18]  189
    x[19]     packing[19]  30
    x[19]     packing[20]  109
    x[19]     packing[21]  182
    x[19]     packing[22]  40
    x[19]     packing[23]  198
    x[19]     packing[24]  127
    x[19]     packing[26]  115
    x[19]     packing[28]  145
    x[19]     packing[30]  180
    x[19]     packing[31]  180
    x[19]     packing[32]  48
    x[19]     packing[33]  137
    x[19]     packing[34]  54
    x[19]     packing[35]  45
    x[19]     packing[36]  35
    x[19]     packing[38]  184
    x[19]     packing[40]  183
    x[19]     packing[41]  176
    x[19]     packing[43]  13
    x[19]     packing[44]  43
    x[19]     packing[45]  2
    x[19]     packing[47]  141
    x[19]     packing[48]  168
    x[19]     packing[49]  70
    x[19]     R53       1
    x[20]     OBJ       122
    x[20]     packing[0]  36
    x[20]     packing[1]  59
    x[20]     packing[2]  48
    x[20]     packing[3]  54
    x[20]     packing[5]  137
    x[20]     packing[6]  195
    x[20]     packing[7]  185
    x[20]     packing[8]  161
    x[20]     packing[9]  173
    x[20]     packing[11]  44
    x[20]     packing[13]  16
    x[20]     packing[14]  97
    x[20]     packing[15]  166
    x[20]     packing[16]  99
    x[20]     packing[17]  120
    x[20]     packing[18]  97
    x[20]     packing[19]  140
    x[20]     packing[20]  132
    x[20]     packing[22]  165
    x[20]     packing[23]  104
    x[20]     packing[24]  77
    x[20]     packing[27]  184
    x[20]     packing[28]  94
    x[20]     packing[29]  192
    x[20]     packing[30]  187
    x[20]     packing[31]  161
    x[20]     packing[33]  50
    x[20]     packing[34]  119
    x[20]     packing[35]  70
    x[20]     packing[36]  86
    x[20]     packing[37]  70
    x[20]     packing[38]  57
    x[20]     packing[39]  114
    x[20]     packing[40]  74
    x[20]     packing[42]  142
    x[20]     packing[43]  155
    x[20]     packing[44]  84
    x[20]     packing[45]  37
    x[20]     packing[47]  133
    MARKER    'MARKER'                 'INTEND'
RHS
    RHS1      packing[0]  478
    RHS1      packing[1]  436
    RHS1      packing[2]  827
    RHS1      packing[3]  870
    RHS1      packing[4]  761
    RHS1      packing[5]  1048
    RHS1      packing[6]  894
    RHS1      packing[7]  620
    RHS1      packing[8]  856
    RHS1      packing[9]  946
    RHS1      packing[10]  672
    RHS1      packing[11]  533
    RHS1      packing[12]  861
    RHS1      packing[13]  903
    RHS1      packing[14]  665
    RHS1      packing[15]  840
    RHS1      packing[16]  742
    RHS1      packing[17]  709
    RHS1      packing[18]  946
    RHS1      packing[19]  728
    RHS1      packing[20]  763
    RHS1      packing[21]  958
    RHS1      packing[22]  798
    RHS1      packing[23]  962
    RHS1      packing[24]  599
    RHS1      packing[25]  629
    RHS1      packing[26]  539
    RHS1      packing[27]  981
    RHS1      packing[28]  588
    RHS1      packing[29]  937
    RHS1      packing[30]  946
    RHS1      packing[31]  789
    RHS1      packing[32]  931
    RHS1      packing[33]  765
    RHS1      packing[34]  625
    RHS1      packing[35]  758
    RHS1      packing[36]  782
    RHS1      packing[37]  994
    RHS1      packing[38]  483
    RHS1      packing[39]  974
    RHS1      packing[40]  700
    RHS1      packing[41]  686
    RHS1      packing[42]  649
    RHS1      packing[43]  757
    RHS1      packing[44]  650
    RHS1      packing[45]  854
    RHS1      packing[46]  731
    RHS1      packing[47]  964
    RHS1      packing[48]  1078
    RHS1      packing[49]  652
    RHS1      R53       3
BOUNDS
 BV BND1      x[1]    
 BV BND1      x[2]    
 BV BND1      x[3]    
 BV BND1      x[4]    
 BV BND1      x[5]    
 BV BND1      x[6]    
 BV BND1      x[7]    
 BV BND1      x[8]    
 BV BND1      x[9]    
 BV BND1      x[10]   
 BV BND1      x[11]   
 BV BND1      x[12]   
 BV BND1      x[13]   
 BV BND1      x[14]   
 BV BND1      x[15]   
 BV BND1      x[16]   
 BV BND1      x[17]   
 BV BND1      x[18]   
 BV BND1      x[19]   
 BV BND1      x[20]   
ENDATA
